### LAMMPS inputfile ###
#------- Global Setup --------------------- 
timer timeout ${max_time}
variable seed world 74581 # 93734 12832 21934 57383 49172
units         metal 
atom_style    full 

# ---------- Box and Atoms --------------------- 
#variable mass      equal 22.98977
#variable numCells  equal 5  # numCells,N->4,256~5,500~6,864~7,1372~8,2048~10,4000~13,8788~14,10976
#variable sideCells equal 4.5 #side of a single sc cell
#
#lattice       bcc ${sideCells} #origin 0.25 0.25 0.25
#region        box block 0 ${numCells} 0 ${numCells} 0 ${numCells} units lattice
#create_box    1 box
#create_atoms  1 box
#mass          1 ${mass}
#change_box    all triclinic
read_restart restart.liq

# ---------- Interatomic Potential --------------------- 
pair_style 	eam/fs
pair_coeff 	* * Na_MendelevM_2014.eam.fs Na

# ---------- Simulation Settings --------------------- 
variable temperature equal 350
variable pressure    equal 1
variable tstep       equal 0.002
variable tempDamp    equal 100*${tstep}  #standard: 100 timesteps
variable presDamp    equal 1000*${tstep} #standard: 1000 timesteps
neigh_modify    delay 10 every 1
timestep	${tstep}

# ---------- Backup and Print --------------------- 
shell bck.meup.sh restart.end dump*
variable out_seldom   equal 500000
variable out_often    equal 50000
thermo        ${out_seldom}
thermo_style  custom step temp pe press lx ly lz pxx pyy pzz pxy pxz pyz
thermo_modify flush yes
restart       ${out_seldom} restart.A restart.B

# ---------- Simulation Run --------------------- 
reset_timestep 	0
dump  simDump all atom ${out_often} dump.lammpstrj
# NPT
fix   1 all plumed plumedfile plumed.dat outfile log.plumed
fix   2 all nph iso ${pressure} ${pressure} ${presDamp}
#fix   2 all nph &
#		x ${pressure} ${pressure} ${presDamp} &
#		y ${pressure} ${pressure} ${presDamp} &
#		z ${pressure} ${pressure} ${presDamp} &
#		xy 0.0 0.0 ${presDamp} &
#		yz 0.0 0.0 ${presDamp} &
#		xz 0.0 0.0 ${presDamp} &
#		couple xyz
fix   3 all temp/csvr ${temperature} ${temperature} ${tempDamp} ${seed}
fix		4 all momentum 10000 linear 1 1 1 angular
run   200000000

# ---------- End --------------------- 
write_restart  restart.end

